4 
5  13 26 50 
6  06 21 35 50 
7  07 22 37 52 
8  07 22 37 52 
9  07 22 37 52 
10  09 24 39 54 
11  09 24 39 54 
12  09 24 39 54 
13  09 25 40 55 
14  10 25 40 55 
15  09 23 38 53 
16  08 23 38 53 
17  08 23 38 53 
18  08 23 38 53 
19  09 23 38 53 
20  08 23 38 53 
21  08 23 38 
22  08 
23  
0 
